N = 10;
H = 6;
T = 2;

avail = array3d(1..N, 1..H, 1..T, [4, 9, 4, 4, 4, 8, 10, 9, 5, 4, 7, 2, 2, 10, 8, 1, 4, 6, 2, 0, 5, 9, 1, 8, 5, 2, 10, 2, 6, 8, 10, 6, 9, 7, 3, 5, 10, 9, 1, 3, 6, 2, 10, 0, 5, 5, 3, 9, 8, 9, 0, 2, 5, 0, 10, 3, 8, 8, 0, 10, 6, 6, 5, 2, 7, 7, 8, 1, 9, 1, 10, 10, 7, 4, 7, 7, 2, 5, 7, 9, 2, 4, 7, 2, 3, 3, 0, 1, 6, 4, 5, 9, 6, 7, 9, 10, 6, 7, 5, 3, 2, 5, 4, 2, 9, 1, 8, 0, 0, 9, 10, 4, 7, 1, 10, 9, 10, 9, 6, 9]);

r = array2d(1..H, 1..T, [5, 2, 2, 0, 1, 4, 1, 2, 3, 2, 1, 2]);
